words_hard_train/2389.qaiger
aag 75 14 0 1 61
2
4
12
14
22
26
32
34
46
48
60
62
74
86
151
6 3 4
8 2 5
10 7 9
16 13 15
18 12 14
20 17 19
24 20 22
28 24 26
30 29 19
36 33 35
38 32 34
40 37 39
42 31 40
44 43 39
50 47 49
52 46 48
54 51 53
56 45 54
58 57 53
64 61 63
66 60 62
68 65 67
70 59 68
72 71 67
76 75 3
78 74 2
80 77 79
82 73 80
84 83 79
88 87 3
90 86 2
92 89 91
94 85 92
96 95 91
98 10 97
100 11 96
102 99 101
104 58 69
106 105 71
108 44 55
110 109 57
112 107 111
114 72 81
116 115 83
118 84 93
120 119 95
122 117 121
124 112 122
126 103 124
128 21 27
130 128 23
132 131 29
134 30 41
136 135 43
138 137 110
140 138 107
142 133 140
144 142 122
146 145 125
148 102 146
150 127 149
i0 2 y1[7]
i1 1 x2[7]
i2 2 y1[3]
i3 1 x2[1]
i4 1 x2[0]
i5 2 y1[2]
i6 2 y1[4]
i7 1 x2[2]
i8 2 y1[5]
i9 1 x2[3]
i10 2 y1[6]
i11 1 x2[4]
i12 1 x2[5]
i13 1 x2[6]
o0 bv[0]
c
simplified
  >=
    add
      -8
      add
        >> 2
          2 y1
        1 x2
    1
