words_hard_train/2389.qaiger.qdimacs
p cnf 75 184
a 2 37 7 11 43 17 24 31 0
e 1 3 4 5 6 8 9 10 12 13 14 15 16 18 19 20 21 22 23 25 26 27 28 29 30 32 33 34 35 36 38 39 40 41 42 44 45 46 47 48 49 50 51 52 53 54 55 56 57 58 59 60 61 62 63 64 65 66 67 68 69 70 71 72 73 74 75 0
1 -2 3 0
-1 -3 0
2 -3 0
-1 2 4 0
1 -4 0
-2 -4 0
3 4 5 0
-3 -5 0
-4 -5 0
6 7 8 0
-6 -8 0
-7 -8 0
-6 -7 9 0
6 -9 0
7 -9 0
8 9 10 0
-8 -10 0
-9 -10 0
-10 -11 12 0
10 -12 0
11 -12 0
-12 -13 14 0
12 -14 0
13 -14 0
14 9 15 0
-14 -15 0
-9 -15 0
16 17 18 0
-16 -18 0
-17 -18 0
-16 -17 19 0
16 -19 0
17 -19 0
18 19 20 0
-18 -20 0
-19 -20 0
15 -20 21 0
-15 -21 0
20 -21 0
21 19 22 0
-21 -22 0
-19 -22 0
23 24 25 0
-23 -25 0
-24 -25 0
-23 -24 26 0
23 -26 0
24 -26 0
25 26 27 0
-25 -27 0
-26 -27 0
22 -27 28 0
-22 -28 0
27 -28 0
28 26 29 0
-28 -29 0
-26 -29 0
30 31 32 0
-30 -32 0
-31 -32 0
-30 -31 33 0
30 -33 0
31 -33 0
32 33 34 0
-32 -34 0
-33 -34 0
29 -34 35 0
-29 -35 0
34 -35 0
35 33 36 0
-35 -36 0
-33 -36 0
37 1 38 0
-37 -38 0
-1 -38 0
-37 -1 39 0
37 -39 0
1 -39 0
38 39 40 0
-38 -40 0
-39 -40 0
36 -40 41 0
-36 -41 0
40 -41 0
41 39 42 0
-41 -42 0
-39 -42 0
43 1 44 0
-43 -44 0
-1 -44 0
-43 -1 45 0
43 -45 0
1 -45 0
44 45 46 0
-44 -46 0
-45 -46 0
42 -46 47 0
-42 -47 0
46 -47 0
47 45 48 0
-47 -48 0
-45 -48 0
-5 48 49 0
5 -49 0
-48 -49 0
5 -48 50 0
-5 -50 0
48 -50 0
49 50 51 0
-49 -51 0
-50 -51 0
-29 34 52 0
29 -52 0
-34 -52 0
52 35 53 0
-52 -53 0
-35 -53 0
-22 27 54 0
22 -54 0
-27 -54 0
54 28 55 0
-54 -55 0
-28 -55 0
53 55 56 0
-53 -56 0
-55 -56 0
-36 40 57 0
36 -57 0
-40 -57 0
57 41 58 0
-57 -58 0
-41 -58 0
-42 46 59 0
42 -59 0
-46 -59 0
59 47 60 0
-59 -60 0
-47 -60 0
58 60 61 0
-58 -61 0
-60 -61 0
-56 -61 62 0
56 -62 0
61 -62 0
51 -62 63 0
-51 -63 0
62 -63 0
10 13 64 0
-10 -64 0
-13 -64 0
-64 11 65 0
64 -65 0
-11 -65 0
65 14 66 0
-65 -66 0
-14 -66 0
-15 20 67 0
15 -67 0
-20 -67 0
67 21 68 0
-67 -68 0
-21 -68 0
68 -55 69 0
-68 -69 0
55 -69 0
-69 53 70 0
69 -70 0
-53 -70 0
66 -70 71 0
-66 -71 0
70 -71 0
-71 -61 72 0
71 -72 0
61 -72 0
72 62 73 0
-72 -73 0
-62 -73 0
-51 -73 74 0
51 -74 0
73 -74 0
63 74 75 0
-63 -75 0
-74 -75 0
-75 0
